<number of tasks>
50

<cycle time>
1000

<order strength>
0.602


<task times>
1 613
2 596
3 555
4 459
5 442
6 416
7 669
8 403
9 207
10 634
11 621
12 705
13 450
14 506
15 675
16 442
17 568
18 478
19 518
20 470
21 410
22 499
23 412
24 485
25 389
26 547
27 344
28 535
29 396
30 303
31 599
32 480
33 454
34 557
35 309
36 347
37 215
38 518
39 522
40 342
41 709
42 440
43 546
44 376
45 665
46 467
47 658
48 378
49 444
50 570

<precedence relations>
1,5
2,6
2,7
2,8
3,6
3,7
3,8
4,6
4,7
4,8
5,11
6,9
6,10
6,11
6,12
6,13
7,9
7,10
7,11
7,12
7,13
8,10
8,11
8,12
8,13
9,14
9,16
9,17
9,18
9,19
10,15
10,17
10,18
11,16
12,16
12,18
12,19
13,16
13,17
13,18
13,19
14,20
15,22
16,21
16,23
16,24
17,23
17,24
18,23
18,24
19,23
19,24
20,27
21,25
22,26
23,27
23,28
24,27
24,28
25,32
26,31
27,29
27,30
27,32
27,33
28,33
29,35
30,36
31,34
32,37
32,38
32,39
33,38
33,39
34,41
35,40
36,42
37,43
37,46
37,50
38,46
40,44
41,46
42,45
43,47
43,48
44,50
45,49

<end>
